MARKOV
230
 2 2 2 2 2 2 2 2 2 2 2 2 2 2 2 2 2 2 2 2 2 2 2 2 2 2 2 2 2 2 2 2 2 2 2 2 2 2 2 2 2 2 2 2 2 2 2 2 2 2 2 2 2 2 2 2 2 2 2 2 2 2 2 2 2 2 2 2 2 2 2 2 2 2 2 2 2 2 2 2 2 2 2 2 2 2 2 2 2 2 2 2 2 2 2 2 2 2 2 2 2 2 2 2 2 2 2 2 2 2 2 2 2 2 2 2 2 2 2 2 2 2 2 2 2 2 2 2 2 2 2 2 2 2 2 2 2 2 2 2 2 2 2 2 2 2 2 2 2 2 2 2 2 2 2 2 2 2 2 2 2 2 2 2 2 2 2 2 2 2 2 2 2 2 2 2 2 2 2 2 2 2 2 2 2 2 2 2 2 2 2 2 2 2 2 2 2 2 2 2 2 2 2 2 2 2 2 2 2 2 2 2 2 2 2 2 2 2 2 2 2 2 2 2 2 2 2 2 2 2
851
1	0 
1	1 
1	2 
1	3 
1	4 
1	5 
1	6 
1	7 
1	8 
1	9 
1	10 
1	11 
1	12 
1	13 
1	14 
1	15 
1	16 
1	17 
1	18 
1	19 
1	20 
1	21 
1	22 
1	23 
1	24 
1	25 
1	26 
1	27 
1	28 
1	29 
1	30 
1	31 
1	32 
1	33 
1	34 
1	35 
1	36 
1	37 
1	38 
1	39 
1	40 
1	41 
1	42 
1	43 
1	44 
1	45 
1	46 
1	47 
1	48 
1	49 
1	50 
1	51 
1	52 
1	53 
1	54 
1	55 
1	56 
1	57 
1	58 
1	59 
1	60 
1	61 
1	62 
1	63 
1	64 
1	65 
1	66 
1	67 
1	68 
1	69 
1	70 
1	71 
1	72 
1	73 
1	74 
1	75 
1	76 
1	77 
1	78 
1	79 
1	80 
1	81 
1	82 
1	83 
1	84 
1	85 
1	86 
1	87 
1	88 
1	89 
1	90 
1	91 
1	92 
1	93 
1	94 
1	95 
1	96 
1	97 
1	98 
1	99 
1	100 
1	101 
1	102 
1	103 
1	104 
1	105 
1	106 
1	107 
1	108 
1	109 
1	110 
1	111 
1	112 
1	113 
1	114 
1	115 
1	116 
1	117 
1	118 
1	119 
1	120 
1	121 
1	122 
1	123 
1	124 
1	125 
1	126 
1	127 
1	128 
1	129 
1	130 
1	131 
1	132 
1	133 
1	134 
1	135 
1	136 
1	137 
1	138 
1	139 
1	140 
1	141 
1	142 
1	143 
1	144 
1	145 
1	146 
1	147 
1	148 
1	149 
1	150 
1	151 
1	152 
1	153 
1	154 
1	155 
1	156 
1	157 
1	158 
1	159 
1	160 
1	161 
1	162 
1	163 
1	164 
1	165 
1	166 
1	167 
1	168 
1	169 
1	170 
1	171 
1	172 
1	173 
1	174 
1	175 
1	176 
1	177 
1	178 
1	179 
1	180 
1	181 
1	182 
1	183 
1	184 
1	185 
1	186 
1	187 
1	188 
1	189 
1	190 
1	191 
1	192 
1	193 
1	194 
1	195 
1	196 
1	197 
1	198 
1	199 
1	200 
1	201 
1	202 
1	203 
1	204 
1	205 
1	206 
1	207 
1	208 
1	209 
1	210 
1	211 
1	212 
1	213 
1	214 
1	215 
1	216 
1	217 
1	218 
1	219 
1	220 
1	221 
1	222 
1	223 
1	224 
1	225 
1	226 
1	227 
1	228 
1	229 
2	1 3 
2	1 5 
2	1 81 
2	1 83 
2	1 143 
2	1 145 
2	1 151 
2	1 215 
2	2 4 
2	2 6 
2	2 71 
2	2 73 
2	2 153 
2	3 4 
2	3 5 
2	3 151 
2	3 154 
2	4 5 
2	4 73 
2	4 153 
2	4 154 
2	5 72 
2	5 73 
2	5 215 
2	6 71 
2	6 153 
2	6 178 
2	7 8 
2	7 9 
2	7 10 
2	7 82 
2	7 83 
2	7 143 
2	8 10 
2	8 82 
2	8 183 
2	8 184 
2	8 186 
2	9 10 
2	9 125 
2	9 127 
2	9 143 
2	9 144 
2	9 211 
2	10 125 
2	10 184 
2	10 187 
2	11 12 
2	11 13 
2	11 53 
2	11 58 
2	11 69 
2	12 13 
2	12 14 
2	12 58 
2	12 60 
2	13 14 
2	14 42 
2	14 43 
2	14 60 
2	15 16 
2	15 17 
2	15 18 
2	15 125 
2	15 187 
2	15 190 
2	16 17 
2	16 188 
2	16 190 
2	17 18 
2	18 124 
2	18 125 
2	19 20 
2	19 22 
2	19 132 
2	20 21 
2	20 22 
2	20 132 
2	20 133 
2	20 224 
2	21 22 
2	21 194 
2	21 195 
2	21 216 
2	21 224 
2	22 67 
2	22 194 
2	23 24 
2	23 25 
2	23 28 
2	23 29 
2	23 30 
2	23 33 
2	23 34 
2	23 36 
2	24 25 
2	24 36 
2	25 29 
2	26 27 
2	26 28 
2	26 30 
2	26 129 
2	26 131 
2	26 214 
2	27 29 
2	27 30 
2	27 129 
2	28 30 
2	28 33 
2	28 212 
2	28 214 
2	29 30 
2	31 32 
2	31 94 
2	31 100 
2	31 102 
2	31 182 
2	32 102 
2	32 112 
2	32 136 
2	32 137 
2	32 182 
2	33 34 
2	33 38 
2	33 198 
2	33 212 
2	34 35 
2	34 36 
2	34 38 
2	35 36 
2	35 37 
2	35 38 
2	37 38 
2	37 177 
2	37 197 
2	38 197 
2	38 198 
2	39 40 
2	39 41 
2	39 44 
2	39 156 
2	39 164 
2	39 172 
2	39 175 
2	40 41 
2	40 42 
2	40 43 
2	40 44 
2	41 43 
2	41 155 
2	41 156 
2	42 43 
2	43 60 
2	43 155 
2	44 175 
2	45 46 
2	45 48 
2	45 49 
2	45 84 
2	45 169 
2	46 48 
2	46 122 
2	46 169 
2	47 48 
2	47 49 
2	48 49 
2	49 84 
2	49 86 
2	50 51 
2	50 147 
2	50 150 
2	50 170 
2	51 52 
2	51 150 
2	52 117 
2	52 118 
2	52 119 
2	52 150 
2	53 54 
2	53 55 
2	53 57 
2	53 58 
2	53 69 
2	53 141 
2	54 55 
2	54 93 
2	54 98 
2	54 141 
2	55 57 
2	55 98 
2	55 210 
2	56 59 
2	56 60 
2	56 155 
2	56 157 
2	56 209 
2	57 58 
2	57 59 
2	57 208 
2	57 210 
2	58 59 
2	58 60 
2	59 60 
2	59 208 
2	59 209 
2	60 155 
2	61 62 
2	61 96 
2	61 97 
2	61 137 
2	61 182 
2	62 63 
2	62 75 
2	62 97 
2	62 135 
2	62 137 
2	62 152 
2	62 208 
2	62 210 
2	63 74 
2	63 75 
2	63 152 
2	64 65 
2	64 66 
2	64 67 
2	64 89 
2	65 66 
2	65 67 
2	65 193 
2	65 194 
2	66 87 
2	66 88 
2	66 192 
2	66 193 
2	67 194 
2	68 69 
2	68 70 
2	68 139 
2	68 141 
2	69 141 
2	70 138 
2	70 139 
2	71 73 
2	71 178 
2	71 196 
2	72 73 
2	72 145 
2	72 199 
2	72 213 
2	72 215 
2	73 196 
2	73 197 
2	73 199 
2	74 75 
2	74 81 
2	74 82 
2	74 151 
2	74 152 
2	74 186 
2	74 202 
2	75 135 
2	75 202 
2	76 78 
2	76 79 
2	76 80 
2	76 176 
2	77 78 
2	77 79 
2	77 162 
2	77 178 
2	77 180 
2	78 79 
2	78 180 
2	79 80 
2	79 162 
2	79 163 
2	80 163 
2	80 164 
2	80 172 
2	80 176 
2	81 82 
2	81 83 
2	81 151 
2	82 83 
2	82 186 
2	83 143 
2	84 85 
2	84 86 
2	84 87 
2	84 169 
2	85 87 
2	85 88 
2	85 166 
2	85 169 
2	85 225 
2	86 87 
2	86 89 
2	87 88 
2	87 89 
2	88 192 
2	88 225 
2	88 227 
2	90 91 
2	90 92 
2	90 93 
2	90 142 
2	90 226 
2	90 229 
2	91 92 
2	91 93 
2	91 94 
2	91 95 
2	91 96 
2	92 94 
2	92 100 
2	92 226 
2	93 95 
2	93 98 
2	93 139 
2	93 141 
2	93 142 
2	94 96 
2	94 100 
2	95 96 
2	95 97 
2	95 98 
2	96 97 
2	96 182 
2	97 98 
2	97 210 
2	98 210 
2	99 101 
2	99 103 
2	99 104 
2	99 227 
2	99 228 
2	100 101 
2	100 102 
2	100 103 
2	100 226 
2	101 103 
2	101 226 
2	101 228 
2	102 103 
2	102 106 
2	102 111 
2	102 112 
2	103 104 
2	103 105 
2	103 106 
2	104 105 
2	104 107 
2	104 192 
2	104 193 
2	104 195 
2	104 227 
2	105 106 
2	105 107 
2	105 217 
2	105 219 
2	106 111 
2	106 219 
2	107 195 
2	107 216 
2	107 217 
2	108 110 
2	108 111 
2	108 113 
2	108 114 
2	108 218 
2	109 114 
2	109 115 
2	109 185 
2	109 189 
2	109 191 
2	109 201 
2	109 203 
2	109 205 
2	110 114 
2	110 116 
2	110 205 
2	110 218 
2	110 222 
2	111 112 
2	111 113 
2	111 218 
2	111 219 
2	112 113 
2	112 136 
2	112 200 
2	113 114 
2	113 115 
2	113 200 
2	113 201 
2	114 115 
2	114 205 
2	115 201 
2	116 118 
2	116 119 
2	116 205 
2	116 222 
2	117 119 
2	117 120 
2	118 119 
2	118 150 
2	118 222 
2	118 223 
2	119 120 
2	119 205 
2	120 204 
2	120 205 
2	121 122 
2	121 123 
2	121 167 
2	121 168 
2	122 168 
2	122 169 
2	123 138 
2	123 140 
2	123 167 
2	124 125 
2	124 126 
2	124 130 
2	125 126 
2	125 127 
2	125 187 
2	126 127 
2	126 128 
2	126 130 
2	126 131 
2	127 131 
2	127 211 
2	128 129 
2	128 130 
2	128 131 
2	129 131 
2	131 211 
2	131 214 
2	132 133 
2	132 134 
2	133 134 
2	133 146 
2	133 149 
2	133 220 
2	133 224 
2	134 146 
2	134 148 
2	135 136 
2	135 137 
2	135 200 
2	135 202 
2	136 137 
2	136 200 
2	137 182 
2	138 139 
2	138 140 
2	138 142 
2	139 141 
2	139 142 
2	140 142 
2	140 167 
2	140 229 
2	142 229 
2	143 144 
2	143 145 
2	144 145 
2	144 211 
2	144 213 
2	145 213 
2	145 215 
2	146 147 
2	146 148 
2	146 149 
2	146 170 
2	147 149 
2	147 150 
2	147 170 
2	148 171 
2	149 150 
2	149 220 
2	149 223 
2	150 223 
2	151 152 
2	151 154 
2	152 154 
2	152 206 
2	152 208 
2	153 154 
2	153 159 
2	153 161 
2	153 162 
2	153 178 
2	154 159 
2	154 206 
2	154 207 
2	155 156 
2	155 157 
2	155 158 
2	156 158 
2	156 160 
2	156 164 
2	157 158 
2	157 159 
2	157 207 
2	158 159 
2	158 160 
2	159 160 
2	159 161 
2	159 207 
2	160 161 
2	160 163 
2	160 164 
2	161 162 
2	161 163 
2	162 163 
2	162 178 
2	163 164 
2	164 172 
2	165 166 
2	165 167 
2	165 168 
2	165 225 
2	165 228 
2	165 229 
2	166 168 
2	166 169 
2	166 225 
2	167 168 
2	167 229 
2	168 169 
2	170 171 
2	172 173 
2	172 175 
2	172 176 
2	173 174 
2	173 175 
2	173 176 
2	174 176 
2	177 179 
2	177 181 
2	177 196 
2	177 197 
2	178 179 
2	178 180 
2	178 196 
2	179 181 
2	179 196 
2	180 181 
2	183 184 
2	183 185 
2	183 200 
2	183 201 
2	183 202 
2	184 185 
2	184 187 
2	184 191 
2	185 191 
2	185 201 
2	186 202 
2	187 190 
2	187 191 
2	188 189 
2	188 190 
2	188 203 
2	188 204 
2	189 190 
2	189 191 
2	189 203 
2	190 191 
2	192 193 
2	192 227 
2	193 194 
2	193 195 
2	194 195 
2	195 216 
2	196 197 
2	197 198 
2	197 199 
2	198 199 
2	198 212 
2	198 213 
2	199 213 
2	200 201 
2	200 202 
2	203 204 
2	203 205 
2	204 205 
2	206 207 
2	206 208 
2	206 209 
2	207 209 
2	208 209 
2	208 210 
2	211 213 
2	211 214 
2	212 213 
2	212 214 
2	213 214 
2	216 217 
2	216 221 
2	216 224 
2	217 218 
2	217 219 
2	217 221 
2	218 219 
2	218 221 
2	218 222 
2	220 221 
2	220 223 
2	220 224 
2	221 222 
2	221 223 
2	221 224 
2	222 223 
2	225 227 
2	225 228 
2	226 228 
2	226 229 
2	227 228 
2	228 229 
0	

2
 0.252912 1
2
 1 0.912045
2
 1 0.726851
2
 1 0.716947
2
 1 0.802973
2
 1 0.448544
2
 1 0.614395
2
 1 0.829559
2
 0.350276 1
2
 1 0.218739
2
 1 0.626199
2
 1 0.152454
2
 1 0.195479
2
 1 0.065919
2
 1 0.112509
2
 1 0.135351
2
 1 0.0372361
2
 1 0.0353359
2
 1 0.0440534
2
 1 0.052599
2
 1 0.0457314
2
 1 0.136989
2
 1 0.100416
2
 1 0.110536
2
 1 0.0883446
2
 1 0.0313011
2
 1 0.0514986
2
 1 0.091408
2
 1 0.0664983
2
 1 0.111146
2
 1 0.0486777
2
 0.706729 1
2
 0.43293 1
2
 1 0.149719
2
 1 0.0851972
2
 1 0.0705238
2
 1 0.0675207
2
 1 0.0430799
2
 1 0.120928
2
 1 0.12714
2
 1 0.052637
2
 1 0.166894
2
 1 0.0905737
2
 1 0.167652
2
 1 0.0412214
2
 1 0.0960901
2
 1 0.0530472
2
 1 0.0384598
2
 1 0.0772034
2
 1 0.194222
2
 1 0.0733587
2
 1 0.045023
2
 1 0.0804355
2
 1 0.297147
2
 1 0.202746
2
 1 0.451948
2
 1 0.451977
2
 1 0.281383
2
 1 0.20571
2
 1 0.563161
2
 1 0.317294
2
 0.369987 1
2
 0.348905 1
2
 0.404003 1
2
 1 0.0717396
2
 1 0.141433
2
 1 0.177282
2
 1 0.117329
2
 1 0.102196
2
 1 0.0633038
2
 1 0.11279
2
 1 0.205342
2
 1 0.322428
2
 1 0.251046
2
 0.200767 1
2
 0.498369 1
2
 1 0.0536332
2
 1 0.215007
2
 1 0.0759304
2
 1 0.1013
2
 1 0.0643943
2
 0.0845749 1
2
 0.03106 1
2
 0.0907477 1
2
 1 0.315402
2
 1 0.196631
2
 1 0.18337
2
 1 0.191527
2
 1 0.282019
2
 1 0.17054
2
 1 0.45849
2
 1 0.710503
2
 1 0.498058
2
 1 0.339642
2
 0.514891 1
2
 1 0.509557
2
 0.729703 1
2
 0.829404 1
2
 1 0.554747
2
 1 0.765301
2
 1 0.697286
2
 1 0.728184
2
 1 0.9571
2
 1 0.337142
2
 1 0.250293
2
 1 0.201614
2
 1 0.80945
2
 1 0.347358
2
 1 0.148612
2
 1 0.345936
2
 1 0.263201
2
 0.923045 1
2
 1 0.638335
2
 1 0.596659
2
 1 0.269542
2
 1 0.193151
2
 1 0.0826
2
 1 0.0496996
2
 1 0.215961
2
 1 0.173379
2
 1 0.0729175
2
 1 0.0999739
2
 1 0.141347
2
 1 0.104885
2
 1 0.103339
2
 1 0.164212
2
 1 0.0890188
2
 1 0.101745
2
 1 0.0904246
2
 1 0.0912451
2
 1 0.0806862
2
 1 0.158248
2
 1 0.166831
2
 1 0.0659623
2
 1 0.0807015
2
 0.467546 1
2
 0.138143 1
2
 0.198038 1
2
 1 0.107577
2
 1 0.44486
2
 1 0.341312
2
 1 0.349446
2
 1 0.209108
2
 0.757111 1
2
 1 0.236275
2
 1 0.363655
2
 1 0.104938
2
 1 0.10397
2
 1 0.0932125
2
 1 0.134984
2
 1 0.164787
2
 0.19579 1
2
 0.300146 1
2
 1 0.560848
2
 0.605996 1
2
 1 0.246237
2
 1 0.204828
2
 1 0.250826
2
 1 0.337667
2
 1 0.645134
2
 1 0.283245
2
 1 0.230067
2
 1 0.2359
2
 1 0.141659
2
 1 0.128726
2
 1 0.189036
2
 1 0.297465
2
 1 0.214436
2
 1 0.175239
2
 1 0.140026
2
 1 0.0957496
2
 1 0.0797686
2
 1 0.0906664
2
 1 0.11426
2
 1 0.111897
2
 1 0.0680113
2
 1 0.0503633
2
 1 0.0944023
2
 1 0.378338
2
 1 0.139147
2
 1 0.148619
2
 1 0.0767666
2
 0.637652 1
2
 1 0.642548
2
 1 0.356457
2
 1 0.215905
2
 0.0674762 1
2
 1 0.402819
2
 1 0.124025
2
 1 0.150619
2
 1 0.158341
2
 1 0.326094
2
 1 0.235286
2
 1 0.271772
2
 1 0.265502
2
 1 0.310422
2
 1 0.159314
2
 1 0.210804
2
 1 0.14097
2
 1 0.11455
2
 1 0.335577
2
 1 0.431554
2
 1 0.741438
2
 1 0.145247
2
 1 0.0641617
2
 1 0.229902
2
 0.415722 1
2
 1 0.84021
2
 1 0.967362
2
 1 0.574194
2
 1 0.924592
2
 1 0.18551
2
 1 0.256043
2
 1 0.149296
2
 1 0.144101
2
 1 0.456335
2
 1 0.274667
2
 1 0.221784
2
 1 0.17789
2
 1 0.189985
2
 1 0.153117
2
 1 0.131535
2
 1 0.156911
2
 1 0.102791
2
 1 0.10443
2
 1 0.231627
2
 1 0.535306
2
 1 0.591285
2
 1 0.411465
2
 1 0.301947
4
 0.985272 0.279905 0.279905 1
4
 0.988431 0.28079 0.28079 1
4
 0.991543 0.286281 0.286281 1
4
 0.995057 0.287988 0.287988 1
4
 0.997183 0.288274 0.288274 1
4
 0.995505 0.285231 0.285231 1
4
 0.98649 0.282311 0.282311 1
4
 0.992045 0.2832 0.2832 1
4
 0.973942 0.267834 0.267834 1
4
 0.97094 0.263258 0.263258 1
4
 0.974271 0.265024 0.265024 1
4
 0.977998 0.268565 0.268565 1
4
 0.969414 0.263343 0.263343 1
4
 0.976789 0.272564 0.272564 1
4
 0.981903 0.276192 0.276192 1
4
 0.979975 0.277689 0.277689 1
4
 0.974652 0.272621 0.272621 1
4
 0.979921 0.273426 0.273426 1
4
 0.978877 0.27057 0.27057 1
4
 0.970285 0.265309 0.265309 1
4
 0.972684 0.26989 0.26989 1
4
 0.9876 0.277448 0.277448 1
4
 0.984002 0.274172 0.274172 1
4
 0.988653 0.279443 0.279443 1
4
 0.97214 0.262441 0.262441 1
4
 0.967294 0.260776 0.260776 1
4
 0.966751 0.257841 0.257841 1
4
 1 0.299651 0.299651 0.991516
4
 1 0.297675 0.297675 0.989013
4
 1 0.300713 0.300713 0.987183
4
 1 0.296738 0.296738 0.996036
4
 1 0.294795 0.294795 0.996707
4
 1 0.294458 0.294458 0.994582
4
 1 0.302715 0.302715 0.986961
4
 1 0.298714 0.298714 0.995812
4
 1 0.303665 0.303665 0.991294
4
 1 0.304617 0.304617 0.987017
4
 1 0.300287 0.300287 0.994639
4
 1 0.300719 0.300719 0.98447
4
 1 0.301302 0.301302 0.980608
4
 1 0.298258 0.298258 0.982426
4
 1 0.294465 0.294465 0.991849
4
 1 0.294582 0.294582 0.988846
4
 1 0.295553 0.295553 0.985686
4
 1 0.304377 0.304377 0.978793
4
 1 0.305696 0.305696 0.982704
4
 1 0.306645 0.306645 0.978244
4
 0.938084 0.256359 0.256359 1
4
 0.934614 0.254484 0.254484 1
4
 0.941355 0.260794 0.260794 1
4
 0.94162 0.259231 0.259231 1
4
 0.936925 0.258878 0.258878 1
4
 0.93619 0.253791 0.253791 1
4
 0.936348 0.252456 0.252456 1
4
 0.943208 0.258525 0.258525 1
4
 0.941991 0.255776 0.255776 1
4
 0.932884 0.250609 0.250609 1
4
 0.930844 0.246517 0.246517 1
4
 0.93472 0.248844 0.248844 1
4
 0.938665 0.252569 0.252569 1
4
 1 0.31755 0.31755 0.960932
4
 1 0.315589 0.315589 0.961309
4
 1 0.312676 0.312676 0.963416
4
 1 0.309105 0.309105 0.970257
4
 1 0.311408 0.311408 0.969713
4
 1 0.315019 0.315019 0.965963
4
 1 0.319871 0.319871 0.956679
4
 1 0.323473 0.323473 0.956304
4
 1 0.319294 0.319294 0.96131
4
 1 0.314961 0.314961 0.959152
4
 1 0.31005 0.31005 0.962767
4
 1 0.30849 0.30849 0.96808
4
 1 0.344395 0.344395 0.974086
4
 1 0.344292 0.344292 0.977703
4
 1 0.348641 0.348641 0.969557
4
 1 0.338941 0.338941 0.97891
4
 1 0.342014 0.342014 0.977922
4
 1 0.346334 0.346334 0.969774
4
 1 0.344562 0.344562 0.968903
4
 1 0.339982 0.339982 0.974249
4
 1 0.338839 0.338839 0.982545
4
 1 0.335546 0.335546 0.987024
4
 1 0.332972 0.332972 0.988521
4
 1 0.333721 0.333721 0.983925
4
 1 0.336826 0.336826 0.978855
4
 1 0.340308 0.340308 0.986471
4
 1 0.338588 0.338588 0.986028
4
 1 0.282227 0.282227 0.980879
4
 1 0.283834 0.283834 0.976976
4
 1 0.285568 0.285568 0.981541
4
 1 0.286244 0.286244 0.974949
4
 1 0.285798 0.285798 0.978514
4
 1 0.282136 0.282136 0.987234
4
 1 0.281054 0.281054 0.986624
4
 1 0.280188 0.280188 0.985461
4
 1 0.282409 0.282409 0.976756
4
 1 0.278781 0.278781 0.985239
4
 1 0.286428 0.286428 0.970851
4
 1 0.293193 0.293193 0.970853
4
 1 0.2901 0.2901 0.978075
4
 1 0.290334 0.290334 0.975059
4
 1 0.29573 0.29573 0.969927
4
 1 0.294584 0.294584 0.974677
4
 1 0.291263 0.291263 0.97978
4
 1 0.29125 0.29125 0.968184
4
 1 0.290797 0.290797 0.971725
4
 1 0.296201 0.296201 0.96661
4
 1 0.287729 0.287729 0.978954
4
 1 0.284042 0.284042 0.987678
4
 1 0.285906 0.285906 0.986791
4
 1 0.28865 0.28865 0.983693
4
 1 0.28841 0.28841 0.972379
4
 0.991205 0.305171 0.305171 1
4
 0.984382 0.300979 0.300979 1
4
 0.987094 0.304849 0.304849 1
4
 0.992931 0.30857 0.30857 1
4
 0.987261 0.301229 0.301229 1
4
 0.995443 0.309367 0.309367 1
4
 0.999196 0.310236 0.310236 1
4
 0.9955 0.30592 0.30592 1
4
 0.992319 0.302424 0.302424 1
4
 0.989759 0.302008 0.302008 1
4
 1 0.279553 0.279553 0.992793
4
 1 0.277143 0.277143 0.999224
4
 1 0.27897 0.27897 0.998552
4
 1 0.28247 0.28247 0.992515
4
 1 0.275333 0.275333 0.99715
4
 1 0.277623 0.277623 0.99101
4
 1 0.276081 0.276081 0.998607
4
 1 0.274484 0.274484 0.995974
4
 0.991325 0.26776 0.26776 1
4
 0.996403 0.271978 0.271978 1
4
 0.989879 0.268095 0.268095 1
4
 0.98042 0.261177 0.261177 1
4
 0.985386 0.266053 0.266053 1
4
 0.990434 0.270244 0.270244 1
4
 0.99562 0.274299 0.274299 1
4
 0.931212 0.240811 0.240811 1
4
 0.935352 0.243243 0.243243 1
4
 0.929906 0.238425 0.238425 1
4
 0.939932 0.245795 0.245795 1
4
 0.938614 0.24336 0.24336 1
4
 0.934146 0.239057 0.239057 1
4
 0.930429 0.237548 0.237548 1
4
 0.931839 0.242562 0.242562 1
4
 0.928183 0.241948 0.241948 1
4
 0.932048 0.244232 0.244232 1
4
 0.926414 0.237758 0.237758 1
4
 0.936192 0.246699 0.246699 1
4
 0.940724 0.249171 0.249171 1
4
 0.940566 0.247582 0.247582 1
4
 0.932519 0.246075 0.246075 1
4
 0.940353 0.252116 0.252116 1
4
 0.940935 0.250886 0.250886 1
4
 0.925634 0.234536 0.234536 1
4
 0.953746 0.294041 0.294041 1
4
 0.95471 0.296512 0.296512 1
4
 0.960301 0.302 0.302 1
4
 0.963813 0.303071 0.303071 1
4
 0.958416 0.297126 0.297126 1
4
 0.949737 0.291643 0.291643 1
4
 0.94814 0.287124 0.287124 1
4
 0.953425 0.292246 0.292246 1
4
 0.951819 0.296484 0.296484 1
4
 0.957393 0.301971 0.301971 1
4
 0.956265 0.299536 0.299536 1
4
 0.965383 0.306162 0.306162 1
4
 0.966847 0.308998 0.308998 1
4
 1 0.349958 0.349958 0.944726
4
 1 0.351948 0.351948 0.946372
4
 1 0.348448 0.348448 0.949193
4
 1 0.355123 0.355123 0.942396
4
 1 0.345195 0.345195 0.947807
4
 1 0.346046 0.346046 0.950312
4
 1 0.341524 0.341524 0.948765
4
 1 0.340266 0.340266 0.954697
4
 1 0.339046 0.339046 0.952983
4
 1 0.343706 0.343706 0.952288
4
 0.949157 0.26784 0.26784 1
4
 0.952093 0.268885 0.268885 1
4
 0.951505 0.267068 0.267068 1
4
 0.946496 0.262998 0.262998 1
4
 0.941777 0.26264 0.26264 1
4
 0.948464 0.268454 0.268454 1
4
 0.955037 0.272194 0.272194 1
4
 0.956593 0.276349 0.276349 1
4
 0.958529 0.275446 0.275446 1
4
 0.951397 0.271758 0.271758 1
4
 0.9574 0.271409 0.271409 1
4
 0.961494 0.276521 0.276521 1
4
 0.963927 0.276774 0.276774 1
4
 0.953967 0.263453 0.263453 1
4
 0.948573 0.258595 0.258595 1
4
 0.949159 0.257334 0.257334 1
4
 0.954772 0.261346 0.261346 1
4
 0.957348 0.265025 0.265025 1
4
 0.951773 0.265467 0.265467 1
4
 0.955951 0.267578 0.267578 1
4
 0.962198 0.272687 0.272687 1
4
 0.963332 0.274904 0.274904 1
4
 0.950919 0.2635 0.2635 1
4
 0.945541 0.258641 0.258641 1
4
 0.949692 0.260697 0.260697 1
4
 0.961334 0.270666 0.270666 1
4
 0.958478 0.267179 0.267179 1
4
 0.944905 0.254642 0.254642 1
4
 0.9835 0.29137 0.29137 1
4
 0.980467 0.292666 0.292666 1
4
 0.979422 0.290093 0.290093 1
4
 0.987207 0.296111 0.296111 1
4
 0.98466 0.295703 0.295703 1
4
 0.984385 0.288691 0.288691 1
4
 0.988983 0.292638 0.292638 1
4
 0.979422 0.288165 0.288165 1
4
 0.989372 0.294572 0.294572 1
4
 0.987207 0.294143 0.294143 1
4
 0.980469 0.284963 0.284963 1
4
 0.975526 0.282552 0.282552 1
4
 0.976677 0.284849 0.284849 1
4
 0.988484 0.289479 0.289479 1
4
 0.989873 0.291888 0.291888 1
4
 0.98135 0.284233 0.284233 1
4
 0.997565 0.331583 0.331583 1
4
 0.992481 0.326986 0.326986 1
4
 1 0.335413 0.335413 0.998677
4
 0.988199 0.325642 0.325642 1
4
 0.995998 0.328388 0.328388 1
4
 1 0.335662 0.335662 0.99515
4
 1 0.33019 0.33019 0.999686
4
 1 0.333966 0.333966 0.994703
4
 0.985539 0.320053 0.320053 1
4
 0.985872 0.318813 0.318813 1
4
 0.991089 0.322132 0.322132 1
4
 0.995216 0.325715 0.325715 1
4
 1 0.337001 0.337001 0.990968
4
 0.938504 0.262952 0.262952 1
4
 0.939716 0.266666 0.266666 1
4
 0.94522 0.270247 0.270247 1
4
 0.945167 0.268773 0.268773 1
4
 0.944 0.266482 0.266482 1
4
 0.941564 0.270589 0.270589 1
4
 0.945272 0.271728 0.271728 1
4
 0.979207 0.267731 0.267731 1
4
 0.970068 0.25957 0.25957 1
4
 0.977395 0.264535 0.264535 1
4
 0.986547 0.27455 0.27455 1
4
 0.994668 0.281836 0.281836 1
4
 0.991768 0.277408 0.277408 1
4
 0.995953 0.281092 0.281092 1
4
 0.991211 0.279828 0.279828 1
4
 0.981134 0.26807 0.26807 1
4
 0.984445 0.269742 0.269742 1
4
 0.988155 0.274132 0.274132 1
4
 0.993102 0.293436 0.293436 1
4
 0.991487 0.289507 0.289507 1
4
 0.995671 0.293351 0.293351 1
4
 0.986433 0.285493 0.285493 1
4
 0.984552 0.28574 0.28574 1
4
 0.996845 0.295243 0.295243 1
4
 0.996174 0.296058 0.296058 1
4
 0.994887 0.297834 0.297834 1
4
 0.997573 0.298522 0.298522 1
4
 0.944962 0.23952 0.23952 1
4
 0.943213 0.239839 0.239839 1
4
 0.940198 0.238685 0.238685 1
4
 0.934829 0.233785 0.233785 1
4
 0.953276 0.24579 0.24579 1
4
 0.951511 0.246117 0.246117 1
4
 0.95617 0.250363 0.250363 1
4
 0.960367 0.251933 0.251933 1
4
 0.958106 0.248715 0.248715 1
4
 0.948737 0.243059 0.243059 1
4
 0.955313 0.245625 0.245625 1
4
 0.943954 0.242212 0.242212 1
4
 0.951617 0.247582 0.247582 1
4
 0.947831 0.245609 0.245609 1
4
 0.944802 0.244427 0.244427 1
4
 0.94173 0.243138 0.243138 1
4
 0.937246 0.238838 0.238838 1
4
 0.935564 0.236097 0.236097 1
4
 0.995448 0.291832 0.291832 1
4
 0.994777 0.289725 0.289725 1
4
 0.986212 0.284014 0.284014 1
4
 0.998975 0.293572 0.293572 1
4
 1 0.297368 0.297368 0.999173
4
 1 0.291615 0.291615 0.999565
4
 0.969893 0.306747 0.306747 1
4
 0.970383 0.310094 0.310094 1
4
 0.974533 0.311749 0.311749 1
4
 0.963488 0.301221 0.301221 1
4
 0.975519 0.311239 0.311239 1
4
 0.975848 0.310034 0.310034 1
4
 0.967881 0.302523 0.302523 1
4
 0.964463 0.300729 0.300729 1
4
 0.972184 0.305579 0.305579 1
4
 0.976012 0.314635 0.314635 1
4
 0.977108 0.317045 0.317045 1
4
 0.980517 0.315089 0.315089 1
4
 0.981287 0.318737 0.318737 1
4
 0.986038 0.317136 0.317136 1
4
 0.977165 0.309359 0.309359 1
4
 0.981784 0.312689 0.312689 1
4
 0.967395 0.288961 0.288961 1
4
 0.969733 0.292348 0.292348 1
4
 0.962843 0.284932 0.284932 1
4
 0.960143 0.284959 0.284959 1
4
 0.969515 0.293758 0.293758 1
4
 0.963329 0.289003 0.289003 1
4
 0.972569 0.29308 0.29308 1
4
 0.965659 0.285645 0.285645 1
4
 0.97514 0.293621 0.293621 1
4
 0.968972 0.287082 0.287082 1
4
 0.973827 0.290847 0.290847 1
4
 0.977497 0.297063 0.297063 1
4
 0.980189 0.300882 0.300882 1
4
 0.974701 0.297945 0.297945 1
4
 0.964413 0.283079 0.283079 1
4
 0.963061 0.280742 0.280742 1
4
 0.955948 0.278501 0.278501 1
4
 0.955895 0.276983 0.276983 1
4
 0.95842 0.281689 0.281689 1
4
 0.978761 0.2948 0.2948 1
4
 0.98278 0.301437 0.301437 1
4
 0.972571 0.288234 0.288234 1
4
 0.971534 0.2857 0.2857 1
4
 0.966365 0.282154 0.282154 1
4
 0.976401 0.289447 0.289447 1
4
 0.981623 0.295045 0.295045 1
4
 0.970171 0.283342 0.283342 1
4
 0.972626 0.2836 0.2836 1
4
 0.967452 0.280081 0.280081 1
4
 0.986705 0.310516 0.310516 1
4
 0.991871 0.314125 0.314125 1
4
 0.992149 0.316963 0.316963 1
4
 0.985652 0.312438 0.312438 1
4
 0.981179 0.307485 0.307485 1
4
 0.985155 0.3065 0.3065 1
4
 0.991315 0.309041 0.309041 1
4
 0.990313 0.310063 0.310063 1
4
 0.979969 0.302333 0.302333 1
4
 0.989979 0.311268 0.311268 1
4
 0.979639 0.303508 0.303508 1
4
 0.979308 0.304688 0.304688 1
4
 0.996169 0.313848 0.313848 1
4
 1 0.316192 0.316192 0.999907
4
 1 0.316199 0.316199 0.99716
4
 1 0.313399 0.313399 0.999065
4
 0.995441 0.317731 0.317731 1
4
 0.998913 0.318945 0.318945 1
4
 0.999082 0.317268 0.317268 1
4
 0.999193 0.321827 0.321827 1
4
 1 0.324402 0.324402 0.99845
4
 0.993486 0.320519 0.320519 1
4
 0.997623 0.324084 0.324084 1
4
 1 0.32605 0.32605 0.998899
4
 0.9892 0.316025 0.316025 1
4
 1 0.320445 0.320445 0.997161
4
 1 0.32451 0.32451 0.99498
4
 1 0.32524 0.32524 0.990353
4
 1 0.322676 0.322676 0.993249
4
 1 0.318712 0.318712 0.994253
4
 1 0.320924 0.320924 0.993081
4
 1 0.328504 0.328504 0.993083
4
 1 0.329243 0.329243 0.988465
4
 1 0.327579 0.327579 0.988021
4
 1 0.324754 0.324754 0.97726
4
 1 0.320493 0.320493 0.986688
4
 1 0.319062 0.319062 0.984585
4
 1 0.321999 0.321999 0.978852
4
 1 0.324635 0.324635 0.980448
4
 1 0.320206 0.320206 0.974902
4
 1 0.316913 0.316913 0.978301
4
 1 0.315044 0.315044 0.977752
4
 1 0.319446 0.319446 0.970096
4
 1 0.31631 0.31631 0.973861
4
 1 0.315037 0.315037 0.980446
4
 1 0.321663 0.321663 0.968953
4
 1 0.323276 0.323276 0.968953
4
 1 0.324474 0.324474 0.974246
4
 1 0.329507 0.329507 0.96841
4
 1 0.327585 0.327585 0.968301
4
 1 0.327131 0.327131 0.975834
4
 1 0.329926 0.329926 0.971352
4
 1 0.315896 0.315896 0.993415
4
 1 0.317296 0.317296 0.989406
4
 1 0.322839 0.322839 0.985249
4
 1 0.320931 0.320931 0.990352
4
 1 0.314486 0.314486 0.991297
4
 1 0.309889 0.309889 0.999008
4
 1 0.310382 0.310382 0.995592
4
 1 0.318787 0.318787 0.981548
4
 1 0.315509 0.315509 0.984971
4
 1 0.311757 0.311757 0.991575
4
 1 0.313641 0.313641 0.98713
4
 1 0.318413 0.318413 0.979236
4
 1 0.324806 0.324806 0.969879
4
 1 0.313273 0.313273 0.984805
4
 1 0.334723 0.334723 0.961907
4
 1 0.333522 0.333522 0.96018
4
 1 0.329844 0.329844 0.96407
4
 1 0.332202 0.332202 0.967107
4
 1 0.337724 0.337724 0.951966
4
 1 0.33718 0.33718 0.949564
4
 1 0.336481 0.336481 0.957919
4
 1 0.341106 0.341106 0.957221
4
 1 0.335148 0.335148 0.964829
4
 1 0.33811 0.33811 0.96234
4
 1 0.334733 0.334733 0.953785
4
 1 0.331576 0.331576 0.960072
4
 1 0.331879 0.331879 0.952286
4
 1 0.331042 0.331042 0.957649
4
 0.946651 0.282939 0.282939 1
4
 0.944793 0.278837 0.278837 1
4
 0.950646 0.283843 0.283843 1
4
 0.950486 0.285344 0.285344 1
4
 0.95134 0.287474 0.287474 1
4
 0.952783 0.290136 0.290136 1
4
 0.943574 0.274953 0.274953 1
4
 0.946865 0.278314 0.278314 1
4
 0.949633 0.281816 0.281816 1
4
 1 0.306509 0.306509 0.969602
4
 1 0.30564 0.30564 0.967318
4
 1 0.307844 0.307844 0.962388
4
 1 0.304102 0.304102 0.972656
4
 1 0.301886 0.301886 0.976761
4
 1 0.307239 0.307239 0.974406
4
 1 0.30103 0.30103 0.974459
4
 1 0.30275 0.30275 0.967915
4
 1 0.305426 0.305426 0.965419
4
 1 0.299827 0.299827 0.972764
4
 1 0.297642 0.297642 0.976869
4
 1 0.296126 0.296126 0.981819
4
 1 0.300508 0.300508 0.96558
4
 1 0.304933 0.304933 0.962982
4
 1 0.299344 0.299344 0.970309
4
 1 0.297607 0.297607 0.970418
4
 1 0.294943 0.294943 0.980111
4
 1 0.293112 0.293112 0.980275
4
 1 0.348809 0.348809 0.964398
4
 1 0.352589 0.352589 0.961209
4
 1 0.350784 0.350784 0.960345
4
 1 0.350626 0.350626 0.95733
4
 1 0.34702 0.34702 0.960668
4
 1 0.34408 0.34408 0.965102
4
 1 0.342411 0.342411 0.968848
4
 1 0.354425 0.354425 0.954164
4
 1 0.357411 0.357411 0.951756
4
 0.996284 0.302827 0.302827 1
4
 0.9931 0.299366 0.299366 1
4
 0.999702 0.30435 0.30435 1
4
 0.997964 0.300496 0.300496 1
4
 0.994104 0.302385 0.302385 1
4
 1 0.3072 0.3072 0.999288
4
 0.988371 0.298518 0.298518 1
4
 0.947078 0.274222 0.274222 1
4
 0.946652 0.276411 0.276411 1
4
 0.949528 0.277361 0.277361 1
4
 0.950756 0.273875 0.273875 1
4
 0.953267 0.278528 0.278528 1
4
 0.952839 0.280752 0.280752 1
4
 0.952731 0.283311 0.283311 1
4
 0.956 0.284736 0.284736 1
4
 0.958904 0.285714 0.285714 1
4
 1 0.291399 0.291399 0.994414
4
 1 0.288694 0.288694 0.999115
4
 1 0.288809 0.288809 0.99609
4
 1 0.292476 0.292476 0.988235
4
 1 0.287674 0.287674 0.994804
4
 1 0.285004 0.285004 0.999507
4
 0.995729 0.283863 0.283863 1
4
 1 0.352884 0.352884 0.950154
4
 1 0.35725 0.35725 0.948768
4
 1 0.350622 0.350622 0.954485
4
 1 0.356068 0.356068 0.946161
4
 1 0.349255 0.349255 0.953467
4
 1 0.348014 0.348014 0.951968
4
 1 0.35468 0.35468 0.945151
4
 1 0.362004 0.362004 0.942503
4
 1 0.345783 0.345783 0.956308
4
 1 0.344076 0.344076 0.962233
4
 1 0.342746 0.342746 0.961423
4
 1 0.341528 0.341528 0.959912
4
 0.979314 0.280319 0.280319 1
4
 0.975857 0.274964 0.274964 1
4
 0.973995 0.275203 0.275203 1
4
 0.973611 0.277529 0.277529 1
4
 0.972518 0.278188 0.278188 1
4
 0.968162 0.265364 0.265364 1
4
 0.964418 0.261744 0.261744 1
4
 0.963066 0.259151 0.259151 1
4
 0.961014 0.256317 0.256317 1
4
 0.965232 0.257924 0.257924 1
4
 0.966803 0.266263 0.266263 1
4
 0.970174 0.272228 0.272228 1
4
 0.967563 0.268897 0.268897 1
4
 0.945331 0.251785 0.251785 1
4
 0.95108 0.257351 0.257351 1
4
 0.950067 0.255513 0.255513 1
4
 0.949907 0.253884 0.253884 1
4
 0.948681 0.251603 0.251603 1
4
 0.943846 0.247701 0.247701 1
4
 0.955684 0.259496 0.259496 1
4
 0.959879 0.261996 0.261996 1
4
 0.960634 0.264587 0.264587 1
4
 0.958856 0.260125 0.260125 1
4
 0.953434 0.255329 0.255329 1
4
 0.957619 0.257788 0.257788 1
4
 0.961715 0.260029 0.260029 1
4
 0.963822 0.265228 0.265228 1
4
 0.956276 0.255234 0.255234 1
4
 0.950441 0.250432 0.250432 1
4
 0.947351 0.249111 0.249111 1
4
 0.958319 0.254638 0.254638 1
4
 0.954506 0.252609 0.252609 1
4
 0.952472 0.249846 0.249846 1
4
 0.960475 0.253432 0.253432 1
4
 0.945598 0.246548 0.246548 1
4
 0.938035 0.240911 0.240911 1
4
 0.964031 0.29663 0.29663 1
4
 0.959333 0.290629 0.290629 1
4
 0.959171 0.292166 0.292166 1
4
 0.968317 0.299627 0.299627 1
4
 0.96848 0.298051 0.298051 1
4
 0.962625 0.292091 0.292091 1
4
 0.960033 0.294347 0.294347 1
4
 0.961489 0.297073 0.297073 1
4
 0.969187 0.301864 0.301864 1
4
 0.955355 0.288393 0.288393 1
4
 0.958795 0.288318 0.288318 1
4
 0.956643 0.292602 0.292602 1
4
 1 0.360806 0.360806 0.939913
4
 0.928186 0.232846 0.232846 1
4
 0.929855 0.235157 0.235157 1
4
 0.931894 0.233935 0.233935 1
4
 0.921901 0.227194 0.227194 1
4
 0.924492 0.231377 0.231377 1
4
 0.92652 0.230174 0.230174 1
4
 0.925584 0.228256 0.228256 1
4
 0.974054 0.258428 0.258428 1
4
 0.971814 0.255672 0.255672 1
4
 0.97767 0.261638 0.261638 1
4
 0.98097 0.26327 0.26327 1
4
 0.968382 0.256711 0.256711 1
4
 0.962419 0.251764 0.251764 1
4
 0.971977 0.259899 0.259899 1
4
 0.969852 0.255655 0.255655 1
4
 0.975696 0.261621 0.261621 1
4
 0.96388 0.250728 0.250728 1
4
 1 0.306655 0.306655 0.987018
4
 1 0.308551 0.308551 0.986409
4
 1 0.306692 0.306692 0.99358
4
 1 0.308544 0.308544 0.989127
4
 1 0.303335 0.303335 0.99531
4
 1 0.309518 0.309518 0.982153
4
 1 0.30857 0.30857 0.978299
4
 1 0.310762 0.310762 0.978245
4
 1 0.312684 0.312684 0.977641
4
 1 0.311425 0.311425 0.984251
4
 1 0.299961 0.299961 0.998669
4
 1 0.313118 0.313118 0.970094
4
 1 0.311726 0.311726 0.973805
4
 1 0.322636 0.322636 0.961257
4
 1 0.320895 0.320895 0.96131
4
 1 0.324875 0.324875 0.960124
4
 1 0.327331 0.327331 0.954748
4
 1 0.318467 0.318467 0.966289
4
 1 0.317053 0.317053 0.969986
4
 1 0.322418 0.322418 0.965097
4
 1 0.315342 0.315342 0.97004
4
 0.995384 0.324001 0.324001 1
4
 0.98698 0.315944 0.315944 1
4
 1 0.331507 0.331507 0.995484
4
 1 0.328963 0.328963 0.996994
4
 1 0.332725 0.332725 0.992025
4
 1 0.330915 0.330915 0.98891
4
 0.982623 0.266523 0.266523 1
4
 0.991101 0.272209 0.272209 1
4
 0.989655 0.27255 0.27255 1
4
 0.994837 0.276639 0.276639 1
4
 1 0.280801 0.280801 0.997655
4
 0.999035 0.280313 0.280313 1
4
 0.997577 0.280664 0.280664 1
4
 1 0.309549 0.309549 0.991407
4
 1 0.304322 0.304322 0.997605
4
 1 0.327109 0.327109 0.958563
4
 1 0.326283 0.326283 0.963961
4
 1 0.328749 0.328749 0.958563
4
 0.967182 0.27117 0.27117 1
4
 0.968703 0.275181 0.275181 1
4
 0.965825 0.271635 0.271635 1
4
 0.963226 0.268312 0.268312 1
4
 0.964741 0.272281 0.272281 1
4
 0.968757 0.278077 0.278077 1
4
 1 0.288622 0.288622 0.991625
4
 1 0.291618 0.291618 0.985242
4
 1 0.284103 0.284103 0.994915
4
 1 0.287052 0.287052 0.988511
4
 1 0.28683 0.28683 0.991791
4
 1 0.329984 0.329984 0.983869
4
 1 0.332406 0.332406 0.979734
4
 1 0.334745 0.334745 0.979239
4
 1 0.327663 0.327663 0.98122
4
 1 0.325727 0.325727 0.986302
4
 1 0.330726 0.330726 0.979294
4
 1 0.325079 0.325079 0.984089
4
 1 0.330068 0.330068 0.977096
4
 1 0.329806 0.329806 0.974521
4
 1 0.337134 0.337134 0.970917
4
 1 0.339842 0.339842 0.96586
4
 1 0.339507 0.339507 0.970427
4
 1 0.332889 0.332889 0.972608
4
 1 0.335831 0.335831 0.970099
4
 1 0.335499 0.335499 0.974686
4
 1 0.335563 0.335563 0.967542
4
 0.978098 0.308195 0.308195 1
4
 0.97366 0.303309 0.303309 1
4
 0.974153 0.300545 0.300545 1
4
 0.968264 0.294536 0.294536 1
4
 0.978263 0.306574 0.306574 1
4
 0.967937 0.295681 0.295681 1
1
 1

